language Essence 1.3

letting blksize_delta be
        function(1 --> 9, 2 --> 8, 3 --> 8, 4 --> 8, 5 --> 8, 6 --> 8, 7 --> 8, 8 --> 8, 9 --> 8, 10 --> 8, 11 --> 9,
                 12 --> 8, 13 --> 8, 14 --> 8, 15 --> 9, 16 --> 8, 17 --> 8, 18 --> 8, 19 --> 8, 20 --> 8, 21 --> 8,
                 22 --> 8, 23 --> 8)
letting maxcars be
        function(1 --> 9, 2 --> 9, 3 --> 9, 4 --> 9, 5 --> 9, 6 --> 9, 7 --> 9, 8 --> 9, 9 --> 9, 10 --> 9, 11 --> 9,
                 12 --> 9, 13 --> 9, 14 --> 9, 15 --> 9, 16 --> 9, 17 --> 9, 18 --> 9, 19 --> 9, 20 --> 9, 21 --> 9,
                 22 --> 9, 23 --> 10)
letting n_cars be 214
letting n_classes be 39
letting n_options be 23
letting quantity be
        function(1 --> 5, 2 --> 5, 3 --> 5, 4 --> 5, 5 --> 21, 6 --> 5, 7 --> 5, 8 --> 5, 9 --> 6, 10 --> 5, 11 --> 5,
                 12 --> 5, 13 --> 5, 14 --> 5, 15 --> 5, 16 --> 6, 17 --> 5, 18 --> 5, 19 --> 5, 20 --> 5, 21 --> 5,
                 22 --> 5, 23 --> 5, 24 --> 5, 25 --> 6, 26 --> 5, 27 --> 5, 28 --> 5, 29 --> 5, 30 --> 5, 31 --> 5,
                 32 --> 5, 33 --> 5, 34 --> 5, 35 --> 5, 36 --> 5, 37 --> 5, 38 --> 5, 39 --> 5)
letting usage be
        relation((1, 5), (1, 23), (2, 18), (2, 22), (2, 23), (3, 5), (3, 9), (3, 12), (3, 16), (4, 3), (4, 5), (5, 1),
                 (5, 22), (6, 8), (6, 9), (6, 11), (6, 12), (6, 23), (7, 7), (7, 21), (8, 3), (8, 7), (8, 11), (8, 14),
                 (8, 15), (8, 20), (9, 8), (9, 15), (10, 14), (10, 19), (11, 11), (11, 12), (11, 13), (11, 17), (12, 3),
                 (12, 14), (12, 21), (13, 14), (13, 16), (13, 18), (14, 1), (14, 7), (15, 5), (15, 6), (16, 13),
                 (17, 12), (17, 22), (17, 23), (18, 4), (18, 12), (18, 20), (19, 16), (19, 22), (20, 7), (20, 17),
                 (20, 20), (20, 21), (21, 8), (21, 11), (21, 12), (22, 23), (23, 17), (24, 6), (24, 12), (25, 6),
                 (25, 8), (25, 14), (25, 15), (25, 22), (26, 9), (26, 12), (26, 17), (27, 5), (27, 11), (27, 12),
                 (27, 19), (28, 23), (29, 5), (30, 1), (30, 7), (30, 14), (30, 19), (31, 1), (31, 17), (32, 2), (32, 7),
                 (32, 14), (32, 17), (32, 22), (33, 4), (33, 10), (33, 15), (33, 16), (34, 12), (34, 19), (34, 23),
                 (35, 1), (35, 4), (35, 6), (35, 11), (35, 14), (35, 17), (36, 13), (36, 18), (36, 19), (36, 21),
                 (37, 4), (37, 8), (37, 9), (37, 17), (38, 22), (39, 6), (39, 9), (39, 14))
$ Visualisation for usage
$  1  5
$  1 23
$  2 18
$  2 22
$  2 23
$  3  5
$  3  9
$  3 12
$  3 16
$  4  3
$  4  5
$  5  1
$  5 22
$  6  8
$  6  9
$  6 11
$  6 12
$  6 23
$  7  7
$  7 21
$  8  3
$  8  7
$  8 11
$  8 14
$  8 15
$  8 20
$  9  8
$  9 15
$ 10 14
$ 10 19
$ 11 11
$ 11 12
$ 11 13
$ 11 17
$ 12  3
$ 12 14
$ 12 21
$ 13 14
$ 13 16
$ 13 18
$ 14  1
$ 14  7
$ 15  5
$ 15  6
$ 16 13
$ 17 12
$ 17 22
$ 17 23
$ 18  4
$ 18 12
$ 18 20
$ 19 16
$ 19 22
$ 20  7
$ 20 17
$ 20 20
$ 20 21
$ 21  8
$ 21 11
$ 21 12
$ 22 23
$ 23 17
$ 24  6
$ 24 12
$ 25  6
$ 25  8
$ 25 14
$ 25 15
$ 25 22
$ 26  9
$ 26 12
$ 26 17
$ 27  5
$ 27 11
$ 27 12
$ 27 19
$ 28 23
$ 29  5
$ 30  1
$ 30  7
$ 30 14
$ 30 19
$ 31  1
$ 31 17
$ 32  2
$ 32  7
$ 32 14
$ 32 17
$ 32 22
$ 33  4
$ 33 10
$ 33 15
$ 33 16
$ 34 12
$ 34 19
$ 34 23
$ 35  1
$ 35  4
$ 35  6
$ 35 11
$ 35 14
$ 35 17
$ 36 13
$ 36 18
$ 36 19
$ 36 21
$ 37  4
$ 37  8
$ 37  9
$ 37 17
$ 38 22
$ 39  6
$ 39  9
$ 39 14

